
Gurobi 7.0.2 (linux64, Matlab) logging started Sun Sep  2 08:55:50 2018


Gurobi 7.0.2 (linux64) logging started Sun Sep  2 08:55:50 2018

Optimize a model with 51876 rows, 18188 columns and 239156 nonzeros
Coefficient statistics:
  Matrix range     [2e-01, 5e+01]
  Objective range  [3e-04, 5e+00]
  Bounds range     [1e+00, 3e+02]
  RHS range        [1e+00, 1e+02]
Iteration    Objective       Primal Inf.    Dual Inf.      Time
       0   -1.6649020e+01   0.000000e+00   0.000000e+00      0s

Solved in 0 iterations and 0.02 seconds
Optimal objective -1.664902000e+01
